<number of tasks>
20

<cycle time>
1000

<order strength>
0,5


<task times>
1 460
2 279
3 254
4 296
5 335
6 778
7 278
8 397
9 452
10 778
11 661
12 451
13 569
14 418
15 527
16 513
17 602
18 431
19 509
20 496

<precedence relations>
1,3
1,4
1,5
1,6
2,5
2,6
3,7
4,8
5,12
5,16
6,9
7,10
8,11
9,11
9,12
10,14
11,13
11,15
11,16
12,15
12,18
13,17
14,18
15,19
15,20
16,19
16,20

<end>
